\Problem name: compact

Minimize
OBJROW: C
Subject To
ord(0,1):  - x(0,1) + x(0,2) >= 7
ord(0,2):  x(0,0) - x(0,2) >= 7
ord(1,1):  x(1,0) - x(1,1) >= 4
ord(1,2):  - x(1,0) + x(1,2) >= 3
ord(2,1):  - x(2,1) + x(2,2) >= 7
ord(2,2):  x(2,0) - x(2,2) >= 6
triangle2(0,1,0):  y(0,1,0) + y(1,0,0) = 1
triangle2(0,1,1):  y(0,1,1) + y(1,0,1) = 1
triangle2(0,1,2):  y(0,1,2) + y(1,0,2) = 1
triangle2(0,2,0):  y(0,2,0) + y(2,0,0) = 1
triangle2(0,2,1):  y(0,2,1) + y(2,0,1) = 1
triangle2(0,2,2):  y(0,2,2) + y(2,0,2) = 1
triangle2(1,2,0):  y(1,2,0) + y(2,1,0) = 1
triangle2(1,2,1):  y(1,2,1) + y(2,1,1) = 1
triangle2(1,2,2):  y(1,2,2) + y(2,1,2) = 1
MCLinV(0,1,0):  - x(0,0) + v(0,1,0)p - v(0,1,0)n + x(1,0) = -3
MCLinV(1,0,0):  x(0,0) + v(1,0,0)p - v(1,0,0)n - x(1,0) = -1
MCLin1(0,1,0):  u(0,1,0)p - u(0,1,0)n >= 0
MCLin2(0,1,0):  23 y(1,0,0) + u(0,1,0)p - u(0,1,0)n >= 0
MCLin3(0,1,0):  -36 y(1,0,0) - v(0,1,0)p + v(0,1,0)n + u(0,1,0)p - u(0,1,0)n >= -36
MCLin4(0,1,0):  -36 y(1,0,0) + u(0,1,0)p - u(0,1,0)n <= 0
MCLin5(0,1,0):  23 y(1,0,0) - v(0,1,0)p + v(0,1,0)n + u(0,1,0)p - u(0,1,0)n <= 23
MCLin6(1,0,0):  u(1,0,0)p - u(1,0,0)n >= 0
MCLin7(1,0,0):  40 y(0,1,0) + u(1,0,0)p - u(1,0,0)n >= 0
MCLin8(1,0,0):  -19 y(0,1,0) - v(1,0,0)p + v(1,0,0)n + u(1,0,0)p - u(1,0,0)n >= -19
MCLin9(1,0,0):  -19 y(0,1,0) + u(1,0,0)p - u(1,0,0)n <= 0
MCLin10(1,0,0):  40 y(0,1,0) - v(1,0,0)p + v(1,0,0)n + u(1,0,0)p - u(1,0,0)n <= 40
MCLinV(0,1,1):  - x(0,1) + v(0,1,1)p - v(0,1,1)n + x(1,1) = -4
MCLinV(1,0,1):  x(0,1) + v(1,0,1)p - v(1,0,1)n - x(1,1) = -7
MCLin1(0,1,1):  u(0,1,1)p - u(0,1,1)n >= 0
MCLin2(0,1,1):  34 y(1,0,1) + u(0,1,1)p - u(0,1,1)n >= 0
MCLin3(0,1,1):  -25 y(1,0,1) - v(0,1,1)p + v(0,1,1)n + u(0,1,1)p - u(0,1,1)n >= -25
MCLin4(0,1,1):  -25 y(1,0,1) + u(0,1,1)p - u(0,1,1)n <= 0
MCLin5(0,1,1):  34 y(1,0,1) - v(0,1,1)p + v(0,1,1)n + u(0,1,1)p - u(0,1,1)n <= 34
MCLin6(1,0,1):  u(1,0,1)p - u(1,0,1)n >= 0
MCLin7(1,0,1):  36 y(0,1,1) + u(1,0,1)p - u(1,0,1)n >= 0
MCLin8(1,0,1):  -23 y(0,1,1) - v(1,0,1)p + v(1,0,1)n + u(1,0,1)p - u(1,0,1)n >= -23
MCLin9(1,0,1):  -23 y(0,1,1) + u(1,0,1)p - u(1,0,1)n <= 0
MCLin10(1,0,1):  36 y(0,1,1) - v(1,0,1)p + v(1,0,1)n + u(1,0,1)p - u(1,0,1)n <= 36
MCLinV(0,1,2):  - x(0,2) + v(0,1,2)p - v(0,1,2)n + x(1,2) = -7
MCLinV(1,0,2):  x(0,2) + v(1,0,2)p - v(1,0,2)n - x(1,2) = -7
MCLin1(0,1,2):  u(0,1,2)p - u(0,1,2)n >= 0
MCLin2(0,1,2):  37 y(1,0,2) + u(0,1,2)p - u(0,1,2)n >= 0
MCLin3(0,1,2):  -22 y(1,0,2) - v(0,1,2)p + v(0,1,2)n + u(0,1,2)p - u(0,1,2)n >= -22
MCLin4(0,1,2):  -22 y(1,0,2) + u(0,1,2)p - u(0,1,2)n <= 0
MCLin5(0,1,2):  37 y(1,0,2) - v(0,1,2)p + v(0,1,2)n + u(0,1,2)p - u(0,1,2)n <= 37
MCLin6(1,0,2):  u(1,0,2)p - u(1,0,2)n >= 0
MCLin7(1,0,2):  36 y(0,1,2) + u(1,0,2)p - u(1,0,2)n >= 0
MCLin8(1,0,2):  -23 y(0,1,2) - v(1,0,2)p + v(1,0,2)n + u(1,0,2)p - u(1,0,2)n >= -23
MCLin9(1,0,2):  -23 y(0,1,2) + u(1,0,2)p - u(1,0,2)n <= 0
MCLin10(1,0,2):  36 y(0,1,2) - v(1,0,2)p + v(1,0,2)n + u(1,0,2)p - u(1,0,2)n <= 36
MCLinV(0,2,0):  - x(0,0) + v(0,2,0)p - v(0,2,0)n + x(2,0) = -2
MCLinV(2,0,0):  x(0,0) + v(2,0,0)p - v(2,0,0)n - x(2,0) = -1
MCLin1(0,2,0):  u(0,2,0)p - u(0,2,0)n >= 0
MCLin2(0,2,0):  30 y(2,0,0) + u(0,2,0)p - u(0,2,0)n >= 0
MCLin3(0,2,0):  -28 y(2,0,0) - v(0,2,0)p + v(0,2,0)n + u(0,2,0)p - u(0,2,0)n >= -28
MCLin4(0,2,0):  -28 y(2,0,0) + u(0,2,0)p - u(0,2,0)n <= 0
MCLin5(0,2,0):  30 y(2,0,0) - v(0,2,0)p + v(0,2,0)n + u(0,2,0)p - u(0,2,0)n <= 30
MCLin6(2,0,0):  u(2,0,0)p - u(2,0,0)n >= 0
MCLin7(2,0,0):  31 y(0,2,0) + u(2,0,0)p - u(2,0,0)n >= 0
MCLin8(2,0,0):  -27 y(0,2,0) - v(2,0,0)p + v(2,0,0)n + u(2,0,0)p - u(2,0,0)n >= -27
MCLin9(2,0,0):  -27 y(0,2,0) + u(2,0,0)p - u(2,0,0)n <= 0
MCLin10(2,0,0):  31 y(0,2,0) - v(2,0,0)p + v(2,0,0)n + u(2,0,0)p - u(2,0,0)n <= 31
MCLinV(0,2,1):  - x(0,1) + v(0,2,1)p - v(0,2,1)n + x(2,1) = -7
MCLinV(2,0,1):  x(0,1) + v(2,0,1)p - v(2,0,1)n - x(2,1) = -7
MCLin1(0,2,1):  u(0,2,1)p - u(0,2,1)n >= 0
MCLin2(0,2,1):  36 y(2,0,1) + u(0,2,1)p - u(0,2,1)n >= 0
MCLin3(0,2,1):  -22 y(2,0,1) - v(0,2,1)p + v(0,2,1)n + u(0,2,1)p - u(0,2,1)n >= -22
MCLin4(0,2,1):  -22 y(2,0,1) + u(0,2,1)p - u(0,2,1)n <= 0
MCLin5(0,2,1):  36 y(2,0,1) - v(0,2,1)p + v(0,2,1)n + u(0,2,1)p - u(0,2,1)n <= 36
MCLin6(2,0,1):  u(2,0,1)p - u(2,0,1)n >= 0
MCLin7(2,0,1):  36 y(0,2,1) + u(2,0,1)p - u(2,0,1)n >= 0
MCLin8(2,0,1):  -22 y(0,2,1) - v(2,0,1)p + v(2,0,1)n + u(2,0,1)p - u(2,0,1)n >= -22
MCLin9(2,0,1):  -22 y(0,2,1) + u(2,0,1)p - u(2,0,1)n <= 0
MCLin10(2,0,1):  36 y(0,2,1) - v(2,0,1)p + v(2,0,1)n + u(2,0,1)p - u(2,0,1)n <= 36
MCLinV(0,2,2):  - x(0,2) + v(0,2,2)p - v(0,2,2)n + x(2,2) = -6
MCLinV(2,0,2):  x(0,2) + v(2,0,2)p - v(2,0,2)n - x(2,2) = -7
MCLin1(0,2,2):  u(0,2,2)p - u(0,2,2)n >= 0
MCLin2(0,2,2):  35 y(2,0,2) + u(0,2,2)p - u(0,2,2)n >= 0
MCLin3(0,2,2):  -23 y(2,0,2) - v(0,2,2)p + v(0,2,2)n + u(0,2,2)p - u(0,2,2)n >= -23
MCLin4(0,2,2):  -23 y(2,0,2) + u(0,2,2)p - u(0,2,2)n <= 0
MCLin5(0,2,2):  35 y(2,0,2) - v(0,2,2)p + v(0,2,2)n + u(0,2,2)p - u(0,2,2)n <= 35
MCLin6(2,0,2):  u(2,0,2)p - u(2,0,2)n >= 0
MCLin7(2,0,2):  36 y(0,2,2) + u(2,0,2)p - u(2,0,2)n >= 0
MCLin8(2,0,2):  -22 y(0,2,2) - v(2,0,2)p + v(2,0,2)n + u(2,0,2)p - u(2,0,2)n >= -22
MCLin9(2,0,2):  -22 y(0,2,2) + u(2,0,2)p - u(2,0,2)n <= 0
MCLin10(2,0,2):  36 y(0,2,2) - v(2,0,2)p + v(2,0,2)n + u(2,0,2)p - u(2,0,2)n <= 36
MCLinV(1,2,0):  - x(1,0) + v(1,2,0)p - v(1,2,0)n + x(2,0) = -2
MCLinV(2,1,0):  x(1,0) + v(2,1,0)p - v(2,1,0)n - x(2,0) = -3
MCLin1(1,2,0):  u(1,2,0)p - u(1,2,0)n >= 0
MCLin2(1,2,0):  40 y(2,1,0) + u(1,2,0)p - u(1,2,0)n >= 0
MCLin3(1,2,0):  -19 y(2,1,0) - v(1,2,0)p + v(1,2,0)n + u(1,2,0)p - u(1,2,0)n >= -19
MCLin4(1,2,0):  -19 y(2,1,0) + u(1,2,0)p - u(1,2,0)n <= 0
MCLin5(1,2,0):  40 y(2,1,0) - v(1,2,0)p + v(1,2,0)n + u(1,2,0)p - u(1,2,0)n <= 40
MCLin6(2,1,0):  u(2,1,0)p - u(2,1,0)n >= 0
MCLin7(2,1,0):  24 y(1,2,0) + u(2,1,0)p - u(2,1,0)n >= 0
MCLin8(2,1,0):  -35 y(1,2,0) - v(2,1,0)p + v(2,1,0)n + u(2,1,0)p - u(2,1,0)n >= -35
MCLin9(2,1,0):  -35 y(1,2,0) + u(2,1,0)p - u(2,1,0)n <= 0
MCLin10(2,1,0):  24 y(1,2,0) - v(2,1,0)p + v(2,1,0)n + u(2,1,0)p - u(2,1,0)n <= 24
MCLinV(1,2,1):  - x(1,1) + v(1,2,1)p - v(1,2,1)n + x(2,1) = -7
MCLinV(2,1,1):  x(1,1) + v(2,1,1)p - v(2,1,1)n - x(2,1) = -4
MCLin1(1,2,1):  u(1,2,1)p - u(1,2,1)n >= 0
MCLin2(1,2,1):  36 y(2,1,1) + u(1,2,1)p - u(1,2,1)n >= 0
MCLin3(1,2,1):  -23 y(2,1,1) - v(1,2,1)p + v(1,2,1)n + u(1,2,1)p - u(1,2,1)n >= -23
MCLin4(1,2,1):  -23 y(2,1,1) + u(1,2,1)p - u(1,2,1)n <= 0
MCLin5(1,2,1):  36 y(2,1,1) - v(1,2,1)p + v(1,2,1)n + u(1,2,1)p - u(1,2,1)n <= 36
MCLin6(2,1,1):  u(2,1,1)p - u(2,1,1)n >= 0
MCLin7(2,1,1):  34 y(1,2,1) + u(2,1,1)p - u(2,1,1)n >= 0
MCLin8(2,1,1):  -25 y(1,2,1) - v(2,1,1)p + v(2,1,1)n + u(2,1,1)p - u(2,1,1)n >= -25
MCLin9(2,1,1):  -25 y(1,2,1) + u(2,1,1)p - u(2,1,1)n <= 0
MCLin10(2,1,1):  34 y(1,2,1) - v(2,1,1)p + v(2,1,1)n + u(2,1,1)p - u(2,1,1)n <= 34
MCLinV(1,2,2):  - x(1,2) + v(1,2,2)p - v(1,2,2)n + x(2,2) = -6
MCLinV(2,1,2):  x(1,2) + v(2,1,2)p - v(2,1,2)n - x(2,2) = -7
MCLin1(1,2,2):  u(1,2,2)p - u(1,2,2)n >= 0
MCLin2(1,2,2):  35 y(2,1,2) + u(1,2,2)p - u(1,2,2)n >= 0
MCLin3(1,2,2):  -24 y(2,1,2) - v(1,2,2)p + v(1,2,2)n + u(1,2,2)p - u(1,2,2)n >= -24
MCLin4(1,2,2):  -24 y(2,1,2) + u(1,2,2)p - u(1,2,2)n <= 0
MCLin5(1,2,2):  35 y(2,1,2) - v(1,2,2)p + v(1,2,2)n + u(1,2,2)p - u(1,2,2)n <= 35
MCLin6(2,1,2):  u(2,1,2)p - u(2,1,2)n >= 0
MCLin7(2,1,2):  37 y(1,2,2) + u(2,1,2)p - u(2,1,2)n >= 0
MCLin8(2,1,2):  -22 y(1,2,2) - v(2,1,2)p + v(2,1,2)n + u(2,1,2)p - u(2,1,2)n >= -22
MCLin9(2,1,2):  -22 y(1,2,2) + u(2,1,2)p - u(2,1,2)n <= 0
MCLin10(2,1,2):  37 y(1,2,2) - v(2,1,2)p + v(2,1,2)n + u(2,1,2)p - u(2,1,2)n <= 37
makespan(0):  C - x(0,0) >= 1
makespan(1):  C - x(1,2) >= 7
makespan(2):  C - x(2,0) >= 2
cut_clique_1(0,1):  0.50610 x(0,1) + 0.94773 x(1,1) + 0.85294 x(2,1) >= 1
cut_clique_1(1,1):  0.48875 x(0,1) + 0.51032 x(1,1) + 0.84282 x(2,1) >= 1
cut_clique_1(2,1):  0.49539 x(0,1) + 0.38034 x(1,1) + 0.82942 x(2,1) >= 1
cut_clique_1(3,1):  0.49539 x(0,1) + 0.38034 x(1,1) + 0.79752 x(2,1) >= 1
cut_clique_1(4,1):  0.50530 x(0,1) + 0.38034 x(1,1) + 0.85431 x(2,1) >= 1
cut_clique_1(5,1):  0.50530 x(0,1) + 0.41837 x(1,1) + 0.85431 x(2,1) >= 1
cut_clique_1(6,1):  0.49539 x(0,1) + 0.38034 x(1,1) + 0.85431 x(2,1) >= 1
cut_clique_1(7,1):  0.51035 x(0,1) + 0.43929 x(1,1) + 0.85431 x(2,1) >= 1
cut_clique_1(8,1):  0.70717 x(0,1) + 0.98974 x(2,1) >= 1
cut_clique_1(9,1):  0.47068 x(0,1) + 0.94773 x(1,1) + 0.85294 x(2,1) >= 1
cut_clique_1(10,1):  0.48875 x(0,1) + 0.46439 x(1,1) + 0.84282 x(2,1) >= 1
cut_clique_1(11,1):  0.69330 x(0,1) + 0.98974 x(2,1) >= 1
cut_clique_1(12,1):  0.99293 x(0,1) + 0.82240 x(1,1) + 0.99964 x(2,1) >= 1
cut_clique_1(13,1):  0.79597 x(1,1) + 0.84551 x(2,1) >= 1
cut_clique_1(14,1):  0.84373 x(1,1) + 0.84551 x(2,1) >= 1
cut_clique_1(15,1):  0.92666 x(0,1) + 0.99964 x(2,1) >= 1
cut_clique_1(16,1):  0.80936 x(0,1) + 0.98974 x(2,1) >= 1
cut_clique_1(17,1):  0.97336 x(0,1) + 0.99964 x(2,1) >= 1
cut_clique_1(18,1):  0.99293 x(0,1) + 0.99964 x(2,1) >= 1
cut_clique_1(19,1):  0.86060 x(1,1) + 0.76475 x(2,1) >= 1
cut_clique_1(20,1):  0.74253 x(0,1) + 0.98974 x(2,1) >= 1
cut_clique_1(21,1):  0.52785 x(0,1) + 0.46439 x(1,1) + 0.92711 x(2,1) >= 1
cut_clique_1(22,1):  0.51035 x(0,1) + 0.97626 x(1,1) + 0.78724 x(2,1) >= 1
cut_clique_1(23,1):  0.51035 x(0,1) + 0.43174 x(1,1) + 0.78724 x(2,1) >= 1
cut_clique_1(24,1):  0.48875 x(0,1) + 0.93721 x(1,1) + 0.78724 x(2,1) >= 1
cut_clique_1(25,1):  0.48875 x(0,1) + 0.48602 x(1,1) + 0.84282 x(2,1) >= 1
cut_clique_1(26,1):  0.53841 x(0,1) + 0.43189 x(1,1) + 0.85294 x(2,1) >= 1
cut_clique_1(27,1):  0.53841 x(0,1) + 0.46439 x(1,1) + 0.92711 x(2,1) >= 1
cut_clique_1(28,1):  0.96373 x(0,1) + 0.99964 x(2,1) >= 1
cut_clique_1(29,1):  0.48875 x(0,1) + 0.96532 x(1,1) + 0.83448 x(2,1) >= 1
cut_clique_1(30,1):  0.51035 x(0,1) + 0.93721 x(1,1) + 0.78724 x(2,1) >= 1
cut_clique_1(31,1):  0.48875 x(0,1) + 0.96532 x(1,1) + 0.78724 x(2,1) >= 1
cut_clique_1(32,1):  0.51035 x(0,1) + 0.47444 x(1,1) + 0.78724 x(2,1) >= 1
cut_clique_1(33,1):  0.48875 x(0,1) + 0.46439 x(1,1) + 0.92711 x(2,1) >= 1
cut_clique_1(34,1):  0.63606 x(0,1) + 0.98974 x(2,1) >= 1
cut_clique_1(35,1):  0.48875 x(0,1) + 0.96532 x(1,1) + 0.84282 x(2,1) >= 1
cut_clique_1(36,1):  0.80936 x(0,1) + 0.99964 x(2,1) >= 1
cut_clique_1(37,1):  0.88220 x(0,1) + 0.99964 x(2,1) >= 1
cut_clique_1(38,1):  0.88345 x(1,1) + 0.74297 x(2,1) >= 1
cut_clique_1(39,1):  0.91879 x(1,1) + 0.74297 x(2,1) >= 1
cut_clique_1(40,1):  0.98310 x(0,1) + 0.99964 x(2,1) >= 1
cut_clique_1(41,1):  0.50610 x(0,1) + 0.43189 x(1,1) + 0.85294 x(2,1) >= 1
cut_clique_1(42,1):  0.53841 x(0,1) + 0.43189 x(1,1) + 0.92711 x(2,1) >= 1
cut_clique_1(43,1):  0.91749 x(0,1) + 0.99964 x(2,1) >= 1
cut_clique_1(44,1):  0.99293 x(0,1) + 0.99591 x(1,1) + 0.99964 x(2,1) >= 1
cut_clique_1(45,1):  0.99293 x(0,1) + 0.90464 x(1,1) + 0.99964 x(2,1) >= 1
cut_clique_1(46,1):  0.99293 x(0,1) + 0.98605 x(1,1) + 0.99964 x(2,1) >= 1
cut_clique_1(47,1):  0.51035 x(0,1) + 0.43929 x(1,1) + 0.78724 x(2,1) >= 1
cut_clique_1(48,1):  0.50530 x(0,1) + 0.43929 x(1,1) + 0.85431 x(2,1) >= 1
cut_clique_1(49,1):  0.51035 x(0,1) + 0.43929 x(1,1) + 0.82868 x(2,1) >= 1
cut_clique_1(0,2):  0.08378 x(0,2) + 0.05711 x(2,2) >= 1
cut_clique_1(1,2):  0.08378 x(0,2) + 0.05654 x(2,2) >= 1
cut_clique_1(2,2):  0.08378 x(0,2) + 0.05315 x(2,2) >= 1
cut_clique_1(3,2):  0.08378 x(0,2) + 0.05102 x(2,2) >= 1
cut_clique_1(4,2):  0.08378 x(0,2) + 0.04592 x(2,2) >= 1
cut_clique_1(5,2):  0.08378 x(0,2) + 0.04133 x(2,2) >= 1
cut_clique_1(6,2):  0.07875 x(0,2) + 0.04133 x(2,2) >= 1
cut_clique_1(7,2):  0.07718 x(0,2) + 0.04133 x(2,2) >= 1
cut_clique_1(8,2):  0.07718 x(0,2) + 0.04009 x(2,2) >= 1
cut_clique_1(9,2):  0.07718 x(0,2) + 0.03889 x(2,2) >= 1
cut_clique_1(10,2):  0.07718 x(0,2) + 0.03577 x(2,2) >= 1
cut_clique_1(11,2):  0.07718 x(0,2) + 0.03291 x(2,2) >= 1
cut_clique_2(0,1):  0.69749 x(1,1) + 0.25376 x(2,1) >= 1
cut_clique_2(1,1):  0.66959 x(1,1) + 0.25376 x(2,1) >= 1
cut_clique_2(2,1):  0.66959 x(1,1) + 0.26645 x(2,1) >= 1
cut_clique_2(3,1):  0.66959 x(1,1) + 0.27444 x(2,1) >= 1
cut_clique_2(4,1):  0.72316 x(1,1) + 0.27444 x(2,1) >= 1
cut_clique_2(5,1):  0.71593 x(1,1) + 0.27444 x(2,1) >= 1
cut_clique_2(6,1):  0.64433 x(1,1) + 0.27444 x(2,1) >= 1
cut_clique_2(7,1):  0.65078 x(1,1) + 0.27444 x(2,1) >= 1
cut_clique_2(8,1):  0.63776 x(1,1) + 0.27444 x(2,1) >= 1
cut_clique_2(9,1):  0.59950 x(1,1) + 0.27444 x(2,1) >= 1
cut_clique_2(10,1):  0.54554 x(1,1) + 0.27444 x(2,1) >= 1
cut_clique_2(11,1):  0.97207 x(1,1) + 0.25237 x(2,1) >= 1
cut_clique_2(12,1):  0.15906 x(1,1) + 0.25752 x(2,1) >= 1
cut_clique_2(13,1):  0.76195 x(1,1) + 0.25237 x(2,1) >= 1
cut_clique_2(14,1):  0.16380 x(1,1) + 0.25237 x(2,1) >= 1
cut_clique_2(15,1):  0.95301 x(1,1) + 0.25237 x(2,1) >= 1
cut_clique_2(16,1):  0.67372 x(1,1) + 0.25237 x(2,1) >= 1
cut_clique_2(17,1):  0.74985 x(1,1) + 0.25237 x(2,1) >= 1
cut_clique_2(18,1):  0.73230 x(1,1) + 0.25237 x(2,1) >= 1
cut_clique_2(19,1):  0.72505 x(1,1) + 0.25237 x(2,1) >= 1
cut_clique_2(20,1):  0.67278 x(1,1) + 0.25237 x(2,1) >= 1
cut_clique_2(21,1):  0.14306 x(1,1) + 0.27108 x(2,1) >= 1
cut_clique_2(22,1):  0.14306 x(1,1) + 0.25752 x(2,1) >= 1
cut_clique_2(23,1):  0.15594 x(1,1) + 0.25752 x(2,1) >= 1
cut_clique_2(24,1):  0.99151 x(1,1) + 0.25237 x(2,1) >= 1
cut_clique_2(25,1):  0.59786 x(1,1) + 0.25237 x(2,1) >= 1
cut_clique_2(26,1):  0.17224 x(1,1) + 0.25237 x(2,1) >= 1
cut_clique_2(27,1):  0.17941 x(1,1) + 0.25237 x(2,1) >= 1
cut_clique_2(28,1):  0.58590 x(1,1) + 0.25237 x(2,1) >= 1
cut_clique_2(29,1):  0.65959 x(1,1) + 0.25237 x(2,1) >= 1
cut_clique_2(30,1):  0.74006 x(1,1) + 0.25237 x(2,1) >= 1
cut_clique_2(31,1):  0.83053 x(1,1) + 0.25237 x(2,1) >= 1
cut_clique_2(32,1):  0.74747 x(1,1) + 0.25237 x(2,1) >= 1
cut_clique_2(33,1):  0.74701 x(1,1) + 0.25237 x(2,1) >= 1
cut_clique_2(34,1):  0.57418 x(1,1) + 0.25237 x(2,1) >= 1
cut_clique_2(35,1):  0.91599 x(1,1) + 0.25237 x(2,1) >= 1
cut_clique_2(36,1):  0.18122 x(1,1) + 0.25237 x(2,1) >= 1
cut_clique_2(37,1):  0.14749 x(1,1) + 0.27946 x(2,1) >= 1
cut_clique_2(38,1):  0.63710 x(1,1) + 0.25752 x(2,1) >= 1
cut_clique_2(39,1):  0.58614 x(1,1) + 0.25237 x(2,1) >= 1
cut_clique_2(40,1):  0.58614 x(1,1) + 0.25752 x(2,1) >= 1
cut_clique_2(41,1):  0.16018 x(1,1) + 0.25237 x(2,1) >= 1
cut_clique_2(42,1):  0.14442 x(1,1) + 0.25237 x(2,1) >= 1
cut_clique_2(43,1):  0.72525 x(1,1) + 0.25237 x(2,1) >= 1
cut_clique_2(44,1):  0.15308 x(1,1) + 0.25237 x(2,1) >= 1
cut_clique_2(45,1):  0.70740 x(1,1) + 0.25237 x(2,1) >= 1
cut_clique_2(46,1):  0.79484 x(1,1) + 0.25237 x(2,1) >= 1
cut_clique_2(47,1):  0.87432 x(1,1) + 0.25237 x(2,1) >= 1
cut_clique_2(48,1):  0.14737 x(1,1) + 0.25237 x(2,1) >= 1
cut_clique_2(49,1):  0.17363 x(1,1) + 0.25237 x(2,1) >= 1
cut_clique_2(0,2):  0.03966 x(0,2) + 0.06962 x(2,2) >= 1
cut_clique_3(0,1):  0.31444 x(0,1) + 0.14294 x(1,1) >= 1
cut_clique_3(1,1):  0.99045 x(0,1) + 0.14294 x(1,1) >= 1
cut_clique_3(2,1):  0.88660 x(0,1) + 0.14438 x(1,1) >= 1
cut_clique_3(3,1):  0.91123 x(0,1) + 0.14438 x(1,1) >= 1
cut_clique_3(4,1):  0.97982 x(0,1) + 0.14438 x(1,1) >= 1
cut_clique_3(5,1):  0.80116 x(0,1) + 0.14294 x(1,1) >= 1
cut_clique_3(6,1):  0.94722 x(0,1) + 0.14438 x(1,1) >= 1
cut_clique_3(7,1):  0.95679 x(0,1) + 0.14438 x(1,1) >= 1
cut_clique_3(8,1):  0.98511 x(0,1) + 0.14438 x(1,1) >= 1
cut_clique_3(9,1):  0.74181 x(0,1) + 0.14294 x(1,1) >= 1
cut_clique_3(10,1):  0.74957 x(0,1) + 0.14298 x(1,1) >= 1
cut_clique_3(11,1):  0.89956 x(0,1) + 0.14298 x(1,1) >= 1
cut_clique_3(12,1):  0.34276 x(0,1) + 0.14298 x(1,1) >= 1
cut_clique_3(13,1):  0.31877 x(0,1) + 0.14298 x(1,1) >= 1
cut_clique_3(14,1):  0.30283 x(0,1) + 0.14298 x(1,1) >= 1
cut_clique_3(15,1):  0.33311 x(0,1) + 0.14298 x(1,1) >= 1
cut_clique_3(16,1):  0.93439 x(0,1) + 0.14294 x(1,1) >= 1
cut_clique_3(17,1):  0.36140 x(0,1) + 0.14294 x(1,1) >= 1
cut_clique_3(18,1):  0.93018 x(0,1) + 0.14438 x(1,1) >= 1
cut_clique_3(19,1):  0.89440 x(0,1) + 0.14438 x(1,1) >= 1
cut_clique_3(20,1):  0.91441 x(0,1) + 0.14438 x(1,1) >= 1
cut_clique_3(21,1):  0.94598 x(0,1) + 0.14438 x(1,1) >= 1
cut_clique_3(22,1):  0.32168 x(0,1) + 0.14294 x(1,1) >= 1
cut_clique_3(23,1):  0.60133 x(0,1) + 0.14294 x(1,1) >= 1
cut_clique_3(24,1):  0.59965 x(0,1) + 0.14294 x(1,1) >= 1
cut_clique_3(25,1):  0.61183 x(0,1) + 0.14294 x(1,1) >= 1
cut_clique_3(26,1):  0.29387 x(0,1) + 0.14294 x(1,1) >= 1
cut_clique_3(27,1):  0.91843 x(0,1) + 0.14438 x(1,1) >= 1
cut_clique_3(28,1):  0.95585 x(0,1) + 0.14438 x(1,1) >= 1
cut_clique_3(29,1):  0.37586 x(0,1) + 0.14294 x(1,1) >= 1
cut_clique_3(30,1):  0.73447 x(0,1) + 0.14294 x(1,1) >= 1
cut_clique_3(31,1):  0.87326 x(0,1) + 0.14294 x(1,1) >= 1
cut_clique_3(32,1):  0.79102 x(0,1) + 0.14294 x(1,1) >= 1
cut_clique_3(33,1):  0.87084 x(0,1) + 0.14294 x(1,1) >= 1
cut_clique_3(34,1):  0.86222 x(0,1) + 0.14294 x(1,1) >= 1
cut_clique_3(35,1):  0.62427 x(0,1) + 0.14294 x(1,1) >= 1
cut_clique_3(36,1):  0.33776 x(0,1) + 0.14294 x(1,1) >= 1
cut_clique_3(37,1):  0.34589 x(0,1) + 0.14294 x(1,1) >= 1
cut_clique_3(38,1):  0.57272 x(0,1) + 0.14294 x(1,1) >= 1
cut_clique_3(39,1):  0.60571 x(0,1) + 0.14294 x(1,1) >= 1
cut_clique_3(40,1):  0.94921 x(0,1) + 0.14294 x(1,1) >= 1
cut_clique_3(41,1):  0.48131 x(0,1) + 0.14294 x(1,1) >= 1
cut_clique_3(42,1):  0.97769 x(0,1) + 0.14294 x(1,1) >= 1
cut_clique_3(43,1):  0.65545 x(0,1) + 0.14294 x(1,1) >= 1
cut_clique_3(44,1):  0.46481 x(0,1) + 0.14294 x(1,1) >= 1
cut_clique_3(45,1):  0.52945 x(0,1) + 0.14294 x(1,1) >= 1
cut_clique_3(46,1):  0.58441 x(0,1) + 0.14294 x(1,1) >= 1
cut_clique_3(47,1):  0.56651 x(0,1) + 0.14294 x(1,1) >= 1
cut_clique_3(48,1):  0.44157 x(0,1) + 0.14294 x(1,1) >= 1
cut_clique_3(49,1):  0.55168 x(0,1) + 0.14294 x(1,1) >= 1
cut_clique_4(0,1):  0.21492 x(0,1) + 0.27225 x(2,1) >= 1
cut_clique_4(1,1):  0.19558 x(0,1) + 0.27225 x(2,1) >= 1
cut_clique_4(2,1):  0.18580 x(0,1) + 0.27225 x(2,1) >= 1
cut_clique_4(3,1):  0.18580 x(0,1) + 0.25864 x(2,1) >= 1
cut_clique_4(4,1):  0.16908 x(0,1) + 0.25864 x(2,1) >= 1
cut_clique_4(5,1):  0.15386 x(0,1) + 0.25864 x(2,1) >= 1
cut_clique_4(6,1):  0.15232 x(0,1) + 0.25864 x(2,1) >= 1
cut_clique_4(7,1):  0.15232 x(0,1) + 0.24054 x(2,1) >= 1
cut_clique_4(8,1):  0.15232 x(0,1) + 0.22851 x(2,1) >= 1
cut_clique_4(9,1):  0.15232 x(0,1) + 0.21708 x(2,1) >= 1
cut_clique_4(10,1):  0.15232 x(0,1) + 0.21274 x(2,1) >= 1
cut_clique_4(11,1):  0.15232 x(0,1) + 0.19147 x(2,1) >= 1
cut_clique_4(12,1):  0.14928 x(0,1) + 0.19147 x(2,1) >= 1
cut_clique_4(13,1):  0.14629 x(0,1) + 0.19147 x(2,1) >= 1
cut_clique_4(14,1):  0.14629 x(0,1) + 0.18764 x(2,1) >= 1
cut_clique_4(15,1):  0.14483 x(0,1) + 0.18764 x(2,1) >= 1
cut_clique_4(16,1):  0.14483 x(0,1) + 0.17075 x(2,1) >= 1
cut_clique_4(17,1):  0.14483 x(0,1) + 0.16051 x(2,1) >= 1
cut_clique_4(18,1):  0.14483 x(0,1) + 0.15730 x(2,1) >= 1
cut_clique_4(19,1):  0.14483 x(0,1) + 0.14786 x(2,1) >= 1
cut_clique_4(20,1):  0.14483 x(0,1) + 0.14342 x(2,1) >= 1
cut_clique_4(21,1):  0.14338 x(0,1) + 0.14342 x(2,1) >= 1
cut_clique_5(0,1):  0.20302 x(0,1) + 0.11323 x(1,1) + 0.01962 x(2,1) >= 1
cut_clique_5(1,1):  0.20302 x(0,1) + 0.11323 x(1,1) + 0.01903 x(2,1) >= 1
cut_clique_5(2,1):  0.20099 x(0,1) + 0.11323 x(1,1) + 0.01903 x(2,1) >= 1
cut_clique_5(3,1):  0.19898 x(0,1) + 0.11323 x(1,1) + 0.01903 x(2,1) >= 1
Bounds
 0 <= C <= 44
 14 <= x(0,0) <= 43
 0 <= y(0,1,0) <= 1
 0 <= y(1,0,0) <= 1
 0 <= v(0,1,0)p <= 36
 0 <= v(0,1,0)n <= 23
 0 <= v(1,0,0)p <= 19
 0 <= v(1,0,0)n <= 40
 0 <= u(0,1,0)p <= 440
 0 <= u(0,1,0)n <= 440
 0 <= u(1,0,0)p <= 440
 0 <= u(1,0,0)n <= 440
 0 <= y(0,2,0) <= 1
 0 <= y(2,0,0) <= 1
 0 <= v(0,2,0)p <= 28
 0 <= v(0,2,0)n <= 30
 0 <= v(2,0,0)p <= 27
 0 <= v(2,0,0)n <= 31
 0 <= u(0,2,0)p <= 440
 0 <= u(0,2,0)n <= 440
 0 <= u(2,0,0)p <= 440
 0 <= u(2,0,0)n <= 440
 4 <= x(1,0) <= 34
 0 <= y(1,2,0) <= 1
 0 <= y(2,1,0) <= 1
 0 <= v(1,2,0)p <= 19
 0 <= v(1,2,0)n <= 40
 0 <= v(2,1,0)p <= 35
 0 <= v(2,1,0)n <= 24
 0 <= u(1,2,0)p <= 440
 0 <= u(1,2,0)n <= 440
 0 <= u(2,1,0)p <= 440
 0 <= u(2,1,0)n <= 440
 13 <= x(2,0) <= 42
 0 <= x(0,1) <= 29
 0 <= y(0,1,1) <= 1
 0 <= y(1,0,1) <= 1
 0 <= v(0,1,1)p <= 25
 0 <= v(0,1,1)n <= 34
 0 <= v(1,0,1)p <= 23
 0 <= v(1,0,1)n <= 36
 0 <= u(0,1,1)p <= 440
 0 <= u(0,1,1)n <= 440
 0 <= u(1,0,1)p <= 440
 0 <= u(1,0,1)n <= 440
 0 <= y(0,2,1) <= 1
 0 <= y(2,0,1) <= 1
 0 <= v(0,2,1)p <= 22
 0 <= v(0,2,1)n <= 36
 0 <= v(2,0,1)p <= 22
 0 <= v(2,0,1)n <= 36
 0 <= u(0,2,1)p <= 440
 0 <= u(0,2,1)n <= 440
 0 <= u(2,0,1)p <= 440
 0 <= u(2,0,1)n <= 440
 0 <= x(1,1) <= 30
 0 <= y(1,2,1) <= 1
 0 <= y(2,1,1) <= 1
 0 <= v(1,2,1)p <= 23
 0 <= v(1,2,1)n <= 36
 0 <= v(2,1,1)p <= 25
 0 <= v(2,1,1)n <= 34
 0 <= u(1,2,1)p <= 440
 0 <= u(1,2,1)n <= 440
 0 <= u(2,1,1)p <= 440
 0 <= u(2,1,1)n <= 440
 0 <= x(2,1) <= 29
 7 <= x(0,2) <= 36
 0 <= y(0,1,2) <= 1
 0 <= y(1,0,2) <= 1
 0 <= v(0,1,2)p <= 22
 0 <= v(0,1,2)n <= 37
 0 <= v(1,0,2)p <= 23
 0 <= v(1,0,2)n <= 36
 0 <= u(0,1,2)p <= 440
 0 <= u(0,1,2)n <= 440
 0 <= u(1,0,2)p <= 440
 0 <= u(1,0,2)n <= 440
 0 <= y(0,2,2) <= 1
 0 <= y(2,0,2) <= 1
 0 <= v(0,2,2)p <= 23
 0 <= v(0,2,2)n <= 35
 0 <= v(2,0,2)p <= 22
 0 <= v(2,0,2)n <= 36
 0 <= u(0,2,2)p <= 440
 0 <= u(0,2,2)n <= 440
 0 <= u(2,0,2)p <= 440
 0 <= u(2,0,2)n <= 440
 7 <= x(1,2) <= 37
 0 <= y(1,2,2) <= 1
 0 <= y(2,1,2) <= 1
 0 <= v(1,2,2)p <= 24
 0 <= v(1,2,2)n <= 35
 0 <= v(2,1,2)p <= 22
 0 <= v(2,1,2)n <= 37
 0 <= u(1,2,2)p <= 440
 0 <= u(1,2,2)n <= 440
 0 <= u(2,1,2)p <= 440
 0 <= u(2,1,2)n <= 440
 7 <= x(2,2) <= 36
End
